(set-info :smt-lib-version 2.6)
(set-logic UF)
(set-info :source |Benchmarks from the paper: "Extending Sledgehammer with SMT Solvers" by Jasmin Blanchette, Sascha Bohme, and Lawrence C. Paulson, CADE 2011.  Translated to SMT2 by Andrew Reynolds and Morgan Deters.|)
(set-info :category "industrial")
(set-info :status unsat)
(declare-sort S1 0)
(declare-sort S2 0)
(declare-sort S3 0)
(declare-sort S4 0)
(declare-sort S5 0)
(declare-sort S6 0)
(declare-sort S7 0)
(declare-fun f1 () S1)
(declare-fun f2 () S1)
(declare-fun f3 () S2)
(declare-fun f4 () S2)
(declare-fun f5 () S2)
(declare-fun f6 () S2)
(declare-fun f7 (S3 S4) S1)
(declare-fun f8 () S4)
(declare-fun f9 (S6 S7) S1)
(declare-fun f10 (S2 S2) S6)
(declare-fun f11 (S3 S5) S7)
(declare-fun f12 (S3) S7)
(declare-fun f13 () S3)
(declare-fun f14 () S3)
(assert (not (= f1 f2)))
(assert (not (=> (and (not (= f3 f4)) (not (= f5 f6))) (=> (forall ((?v0 S2) (?v1 S2) (?v2 S2) (?v3 S2) (?v4 S3) (?v5 S3)) (=> (not (= ?v0 ?v1)) (=> (not (= ?v2 ?v3)) (=> (not (= ?v0 ?v3)) (=> (not (= ?v1 ?v2)) (=> (= (f7 ?v4 f8) f1) (=> (= (f7 ?v5 f8) f1) (=> (forall ((?v6 S5)) (= (= (f9 (f10 ?v0 ?v1) (f11 ?v4 ?v6)) f1) (= (f9 (f10 ?v2 ?v3) (f11 ?v5 ?v6)) f1))) (= (= (f9 (f10 ?v0 ?v1) (f12 ?v4)) f1) (= (f9 (f10 ?v2 ?v3) (f12 ?v5)) f1)))))))))) (=> (not (= f3 f5)) (=> (not (= f6 f4)) (=> (= (f7 f13 f8) f1) (=> (= (f7 f14 f8) f1) (=> (forall ((?v0 S5)) (= (= (f9 (f10 f3 f5) (f11 f13 ?v0)) f1) (= (f9 (f10 f6 f4) (f11 f14 ?v0)) f1))) (= (= (f9 (f10 f3 f5) (f12 f13)) f1) (= (f9 (f10 f6 f4) (f12 f14)) f1)))))))))))
(check-sat)
(exit)
